words_hard_train/7870.qaiger
aag 49 15 0 1 34
2
4
8
12
18
22
26
28
34
42
46
54
58
76
80
98
6 2 4
10 7 8
14 13 4
16 11 15
20 18 4
24 21 22
30 26 28
32 31 4
36 32 34
38 27 29
40 37 39
44 42 4
48 44 47
50 40 49
52 45 46
56 54 4
60 57 58
62 53 61
64 51 62
66 20 23
68 65 67
70 56 59
72 68 71
74 25 73
78 76 4
82 78 81
84 75 83
86 79 80
88 85 87
90 6 9
92 89 91
94 16 93
96 12 5
98 95 97
i0 1 x1[6]
i1 1 x1[7]
i2 2 y1[6]
i3 2 y1[7]
i4 1 x1[4]
i5 2 y1[4]
i6 2 y1[0]
i7 2 y1[1]
i8 1 x1[1]
i9 1 x1[2]
i10 2 y1[2]
i11 1 x1[3]
i12 2 y1[3]
i13 1 x1[5]
i14 2 y1[5]
o0 bv[0]
c
simplified
  <=
    or
      and
        1 x1
        >> 7
          1 x1
      1
    2 y1
