words_hard_train/7870.qaiger.qdimacs
p cnf 49 103
a 1 2 38 9 17 21 27 0
e 3 4 5 6 7 8 10 11 12 13 14 15 16 18 19 20 22 23 24 25 26 28 29 30 31 32 33 34 35 36 37 39 40 41 42 43 44 45 46 47 48 49 0
-1 -2 3 0
1 -3 0
2 -3 0
3 -4 5 0
-3 -5 0
4 -5 0
6 -2 7 0
-6 -7 0
2 -7 0
5 7 8 0
-5 -8 0
-7 -8 0
-9 -2 10 0
9 -10 0
2 -10 0
10 -11 12 0
-10 -12 0
11 -12 0
-13 -14 15 0
13 -15 0
14 -15 0
15 -2 16 0
-15 -16 0
2 -16 0
-16 -17 18 0
16 -18 0
17 -18 0
13 14 19 0
-13 -19 0
-14 -19 0
18 19 20 0
-18 -20 0
-19 -20 0
-21 -2 22 0
21 -22 0
2 -22 0
-22 23 24 0
22 -24 0
-23 -24 0
-20 24 25 0
20 -25 0
-24 -25 0
22 -23 26 0
-22 -26 0
23 -26 0
-27 -2 28 0
27 -28 0
2 -28 0
28 -29 30 0
-28 -30 0
29 -30 0
26 30 31 0
-26 -31 0
-30 -31 0
25 -31 32 0
-25 -32 0
31 -32 0
-10 11 33 0
10 -33 0
-11 -33 0
32 33 34 0
-32 -34 0
-33 -34 0
-28 29 35 0
28 -35 0
-29 -35 0
-34 35 36 0
34 -36 0
-35 -36 0
12 36 37 0
-12 -37 0
-36 -37 0
-38 -2 39 0
38 -39 0
2 -39 0
-39 40 41 0
39 -41 0
-40 -41 0
37 41 42 0
-37 -42 0
-41 -42 0
39 -40 43 0
-39 -43 0
40 -43 0
42 43 44 0
-42 -44 0
-43 -44 0
-3 4 45 0
3 -45 0
-4 -45 0
44 45 46 0
-44 -46 0
-45 -46 0
-8 46 47 0
8 -47 0
-46 -47 0
-6 2 48 0
6 -48 0
-2 -48 0
47 48 49 0
-47 -49 0
-48 -49 0
49 0
